
Gurobi 11.0.3 (linux64) logging started Mon Aug 25 15:09:02 2025

Set parameter LogFile to value "/home/yihong/Coding/OR_SUC/SUC_epstheta_results_bigM100000_thread4/case24_ieee_rts_theta0.1_epsilon0.1_gurobi_seed10000_num_gen100_N_WDR50_load_scaling_factor1_proposed_eps_T14quadra_cost_bc1.01.txt"
Set parameter TimeLimit to value 3600
Gurobi Optimizer version 11.0.3 build v11.0.3rc0 (linux64 - "Ubuntu 20.04.6 LTS")

CPU model: AMD EPYC 7532 32-Core Processor, instruction set [SSE2|AVX|AVX2]
Thread count: 64 physical cores, 128 logical processors, using up to 4 threads

Academic license 2399124 - for non-commercial use only - registered to yi___@ed.ac.uk
Optimize a model with 33318 rows, 17411 columns and 766758 nonzeros
Model fingerprint: 0x4a7d57f7
Model has 1400 quadratic constraints
Variable types: 16011 continuous, 1400 integer (1400 binary)
Coefficient statistics:
  Matrix range     [3e-04, 2e+03]
  QMatrix range    [2e-03, 8e-03]
  QLMatrix range   [3e-01, 6e+01]
  Objective range  [1e+00, 1e+00]
  Bounds range     [1e+00, 1e+00]
  RHS range        [1e+00, 9e+03]
Presolve removed 27252 rows and 7443 columns
Presolve time: 0.24s
Presolved: 6066 rows, 9968 columns, 33988 nonzeros
Presolved model has 1400 quadratic constraint(s)
Variable types: 8568 continuous, 1400 integer (1400 binary)

Root relaxation: objective 1.736013e+04, 4714 iterations, 0.11 seconds (0.15 work units)

    Nodes    |    Current Node    |     Objective Bounds      |     Work
 Expl Unexpl |  Obj  Depth IntInf | Incumbent    BestBd   Gap | It/Node Time

H    0     0                    394130.47112 17360.1254  95.6%     -    0s
*    0     0               0    394130.47112 17360.1254  95.6%     -    0s
     0     0 189653.926    0  478 394130.471 189653.926  51.9%     -    0s
     0     0 363188.464    0  107 394130.471 363188.464  7.85%     -    0s
     0     0 363250.108    0   27 394130.471 363250.108  7.84%     -    1s
     0     0 363253.943    0   35 394130.471 363253.943  7.83%     -    1s
     0     0 363254.575    0   35 394130.471 363254.575  7.83%     -    1s
     0     0 363255.054    0   37 394130.471 363255.054  7.83%     -    1s
     0     0 363255.402    0   37 394130.471 363255.402  7.83%     -    1s
     0     2 363255.402    0   37 394130.471 363255.402  7.83%     -    1s
H  244   277                    363339.87852 363255.491  0.02%  19.1    3s
*  244   277              54    363339.87852 363255.491  0.02%  19.2    3s

Cutting planes:
  Gomory: 53
  Lift-and-project: 11
  Implied bound: 151
  MIR: 48
  Flow cover: 210
  RLT: 192
  Relax-and-lift: 88

Explored 320 nodes (18772 simplex iterations) in 3.98 seconds (4.81 work units)
Thread count was 4 (of 128 available processors)

Solution count 3: 363340 363340 394130 

Optimal solution found (tolerance 1.00e-03)
Warning: max constraint violation (2.9643e-08) exceeds tolerance
Best objective 3.633398785244e+05, best bound 3.632554912061e+05, gap 0.0232%

Gurobi 11.0.3 (linux64) logging started Mon Aug 25 15:09:07 2025

Set parameter LogFile to value "/home/yihong/Coding/OR_SUC/SUC_epstheta_results_bigM100000_thread4/case24_ieee_rts_theta0.1_epsilon0.1_gurobi_seed10000_num_gen100_N_WDR50_load_scaling_factor1_proposed_eps_T14quadra_cost_bc1.01.txt"
Set parameter TimeLimit to value 3600
Gurobi Optimizer version 11.0.3 build v11.0.3rc0 (linux64 - "Ubuntu 20.04.6 LTS")

CPU model: AMD EPYC 7532 32-Core Processor, instruction set [SSE2|AVX|AVX2]
Thread count: 64 physical cores, 128 logical processors, using up to 4 threads

Academic license 2399124 - for non-commercial use only - registered to yi___@ed.ac.uk
Optimize a model with 33318 rows, 17412 columns and 771047 nonzeros
Model fingerprint: 0x8b487dfe
Model has 1401 quadratic constraints
Variable types: 16012 continuous, 1400 integer (1400 binary)
Coefficient statistics:
  Matrix range     [3e-04, 2e+03]
  QMatrix range    [2e-03, 5e+01]
  QLMatrix range   [3e-01, 6e+01]
  Objective range  [1e+00, 1e+00]
  Bounds range     [1e-01, 1e+00]
  RHS range        [1e+00, 4e+05]
  QRHS range       [5e+00, 5e+00]
Presolve removed 24697 rows and 6167 columns
Presolve time: 0.29s
Presolved: 10023 rows, 12645 columns, 52729 nonzeros
Presolved model has 1400 quadratic constraint(s)
Presolved model has 1 bilinear constraint(s)

Solving non-convex MIQCP

Variable types: 11243 continuous, 1402 integer (1402 binary)

Root relaxation: objective 1.494074e-03, 14021 iterations, 1.00 seconds (1.26 work units)

    Nodes    |    Current Node    |     Objective Bounds      |     Work
 Expl Unexpl |  Obj  Depth IntInf | Incumbent    BestBd   Gap | It/Node Time

     0     0    0.00149    0   17          -    0.00149      -     -    1s
     0     0    0.00150    0   18          -    0.00150      -     -    2s
     0     0    0.00208    0   32          -    0.00208      -     -    2s
     0     0    0.00208    0   32          -    0.00208      -     -    2s
     0     0    0.00208    0   26          -    0.00208      -     -    2s
     0     0    0.00208    0   26          -    0.00208      -     -    2s
     0     0    0.00208    0   26          -    0.00208      -     -    2s
     0     0    0.00255    0   33          -    0.00255      -     -    3s
     0     0    0.00255    0   22          -    0.00255      -     -    3s
     0     0    0.00255    0   22          -    0.00255      -     -    3s
     0     0    0.00255    0   22          -    0.00255      -     -    3s
     0     0    0.00255    0   22          -    0.00255      -     -    3s
     0     0    0.00255    0   22          -    0.00255      -     -    3s
     0     0    0.00348    0   20          -    0.00348      -     -    3s
H    0     0                       0.0492413    0.00348  92.9%     -    6s
     0     2    0.02714    0   21    0.04924    0.02714  44.9%     -    8s
    45    50    0.02806    9   16    0.04924    0.02725  44.7%  77.0   10s
H  470   416                       0.0362501    0.02725  24.8%  24.2   15s
*  470   416             104       0.0362501    0.02725  24.8%  24.2   15s
H  713   606                       0.0358323    0.02731  23.8%  47.3   17s
*  713   606              72       0.0358323    0.02731  23.8%  47.3   17s
   790   593    0.03560   57   19    0.03583    0.02731  23.8%  43.6   21s
   792   594    0.03435   24   36    0.03583    0.03392  5.34%  43.4   25s
   798   598    0.03502   29   82    0.03583    0.03401  5.08%  43.1   33s
H  798   567                       0.0353178    0.03401  3.70%  43.1   37s
   854   611    0.03467   24  103    0.03532    0.03407  3.54%  65.3   40s
H  984   587                       0.0346062    0.03407  1.55%  65.8   44s
  1089   611    0.03448   37   32    0.03461    0.03411  1.43%  62.0   45s
H 1804   418                       0.0345718    0.03422  1.02%  43.5   49s
  1846   387    0.03441   22   71    0.03457    0.03422  1.01%  42.6   50s
  2587   357    0.03457   66   24    0.03457    0.03443  0.41%  37.6   55s
H 2901   365                       0.0345663    0.03443  0.40%  34.0   55s
* 3717   619             177       0.0345660    0.03447  0.28%  27.3   59s
  4027   923     cutoff  106         0.03457    0.03447  0.28%  25.4   60s
  7496  5264    0.03457  906    2    0.03457    0.03447  0.28%  13.8   65s
 10448  6875    0.03456 1077    9    0.03457    0.03447  0.28%   9.9   70s
 10455  6880    0.03456 1044   14    0.03457    0.03447  0.28%   9.9   75s
 10501  6898    0.03447   31   78    0.03457    0.03447  0.28%  14.5   80s
H10830  6501                       0.0345521    0.03447  0.24%  24.6   84s
 10848  6494    0.03447   35   88    0.03455    0.03447  0.24%  25.2   85s
 11287  6351     cutoff   37         0.03455    0.03447  0.24%  39.5   90s
 11898  6086    0.03451   54   29    0.03455    0.03447  0.24%  52.0   95s
*12720  6138             304       0.0345515    0.03448  0.20%  50.2   97s

Cutting planes:
  Gomory: 2
  Implied bound: 11
  MIR: 5
  StrongCG: 1
  Flow cover: 4
  Inf proof: 24
  RLT: 7
  Relax-and-lift: 15

Explored 13545 nodes (658325 simplex iterations) in 98.87 seconds (109.57 work units)
Thread count was 4 (of 128 available processors)

Solution count 10: 0.0345515 0.0345521 0.034566 ... 0.0492413

Optimal solution found (tolerance 1.00e-03)
Best objective 3.455149197204e-02, best bound 3.451727750710e-02, gap 0.0990%
